c File: instances/18_0.50_2.col
c
c Description: Random graph of size 18 vertices and P(0.49999999999999994) of edges between any two vertices.
p col 18 153
e 1 2
e 1 4
e 1 9
e 1 10
e 1 11
e 2 3
e 2 4
e 2 6
e 2 8
e 2 9
e 2 10
e 2 13
e 2 14
e 2 15
e 2 16
e 2 17
e 2 18
e 3 4
e 3 5
e 3 7
e 3 8
e 3 9
e 3 12
e 3 17
e 4 5
e 4 6
e 4 9
e 4 10
e 4 13
e 4 15
e 4 16
e 4 17
e 5 6
e 5 8
e 5 10
e 5 11
e 5 14
e 5 15
e 5 16
e 6 9
e 6 10
e 6 17
e 7 9
e 7 10
e 7 13
e 7 14
e 7 16
e 7 18
e 8 12
e 8 13
e 8 14
e 8 15
e 8 17
e 9 10
e 9 13
e 9 14
e 9 16
e 9 18
e 10 11
e 10 14
e 10 15
e 11 12
e 11 13
e 11 14
e 11 15
e 11 16
e 11 17
e 12 16
e 12 17
e 13 14
e 13 16
e 13 18
e 14 15
e 14 16
e 14 17
e 15 17
e 15 18
e 16 18